Maximize
  0.031296893152214 Z_156_2_0 + 0.217885587825246 Z_156_2_1
   + 0.1006818811417998 Z_156_2_2 + 0.2586183042586909 Z_156_2_3
   + 0.2915173336220493 Z_156_2_4 + 0.0305762399483441 Z_156_3_0
   + 0.084828586199712 Z_156_3_1 + 0.0436571277275357 Z_156_3_2
   + 0.102843111027614 Z_156_3_3 + 0.6380949350967942 Z_156_3_4
   + 0.000317034 Z_156_1_0 + 0.002640481550336 Z_156_1_1
   + 0.6374222252952834 Z_156_1_2 + 0.00284556209815968 Z_156_1_3
   + 0.256774697043238 Z_156_1_4 + 0.000317034 Z_156_0_0
   + 0.002640481550336 Z_156_0_1 + 0.6374222252952834 Z_156_0_2
   + 0.00284556209815968 Z_156_0_3 + 0.256774697043238 Z_156_0_4
Subject To
 constraint1_1562: Z_156_2_0 + Z_156_2_1 + Z_156_2_2 + Z_156_2_3
   + Z_156_2_4 <= 1
 constraint1_1563: Z_156_3_0 + Z_156_3_1 + Z_156_3_2 + Z_156_3_3
   + Z_156_3_4 <= 1
 constraint1_1561: Z_156_1_0 + Z_156_1_1 + Z_156_1_2 + Z_156_1_3
   + Z_156_1_4 <= 1
 constraint1_1560: Z_156_0_0 + Z_156_0_1 + Z_156_0_2 + Z_156_0_3
   + Z_156_0_4 <= 1
 constraint2_3660: <= 1
 constraint2_3661: <= 1
 constraint2_3662: <= 1
 constraint2_3663: <= 1
 constraint2_1560: Z_156_2_0 + Z_156_3_0 + Z_156_1_0 + Z_156_0_0 <= 1
 constraint2_1561: Z_156_2_1 + Z_156_3_1 + Z_156_1_1 + Z_156_0_1 <= 1
 constraint2_1562: Z_156_2_2 + Z_156_3_2 + Z_156_1_2 + Z_156_0_2 <= 1
 constraint2_1563: Z_156_2_3 + Z_156_3_3 + Z_156_1_3 + Z_156_0_3 <= 1
Bounds
Binaries
 Z_156_2_0 Z_156_2_1 Z_156_2_2 Z_156_2_3 Z_156_2_4 Z_156_3_0 Z_156_3_1
 Z_156_3_2 Z_156_3_3 Z_156_3_4 Z_156_1_0 Z_156_1_1 Z_156_1_2 Z_156_1_3
 Z_156_1_4 Z_156_0_0 Z_156_0_1 Z_156_0_2 Z_156_0_3 Z_156_0_4
End
